# Objective value = 5726.62
I_0_0 676
I_0_1 767
I_0_2 8.9899999999999989e+02
I_0_3 772
I_0_4 8.5099999999999966e+02
I_0_5 7.2399999999999977e+02
I_0_6 1038
I_1_0 53
I_1_1 5.3000000000000014e+01
I_1_2 0
I_1_3 53
I_1_4 0
I_1_5 53
I_1_6 0
I_2_0 67
I_2_1 67
I_2_2 0
I_2_3 67
I_2_4 0
I_2_5 67
I_2_6 0
I_3_0 91
I_3_1 0
I_3_2 91
I_3_3 9.1000000000000185e+01
I_3_4 9.0999999999999986e+01
I_3_5 91
I_3_6 0
I_4_0 55
I_4_1 55
I_4_2 0
I_4_3 55
I_4_4 0
I_4_5 5.4999999999999993e+01
I_4_6 -3.5527136788005009e-15
I_5_0 96
I_5_1 96
I_5_2 48.0000000000001
I_5_3 -1.9539925233402755e-13
I_5_4 9.6000000000000270e+01
I_5_5 4.8000000000000263e+01
I_5_6 -1.8118839761882555e-13
q_1_0_0 5.3000000000000014e+01
q_1_0_1 -1.4210854715202004e-14
q_1_0_2 106
q_1_0_3 0
q_1_0_4 106
q_1_0_5 0
q_1_1_0 0
q_1_1_1 0
q_1_1_2 0
q_1_1_3 0
q_1_1_4 0
q_1_1_5 0
q_2_0_0 67
q_2_0_1 0
q_2_0_2 0
q_2_0_3 0
q_2_0_4 0
q_2_0_5 0
q_2_1_0 0
q_2_1_1 0
q_2_1_2 134
q_2_1_3 0
q_2_1_4 134
q_2_1_5 0
q_3_0_0 0
q_3_0_1 1.8200000000000009e+02
q_3_0_2 0
q_3_0_3 90.9999999999998
q_3_0_4 0
q_3_0_5 0
q_3_1_0 0
q_3_1_1 -9.85878045867139e-14
q_3_1_2 9.1000000000000185e+01
q_3_1_3 0
q_3_1_4 9.1000000000000014e+01
q_3_1_5 0
q_4_0_0 55
q_4_0_1 0
q_4_0_2 110
q_4_0_3 0
q_4_0_4 110
q_4_0_5 0
q_4_1_0 0
q_4_1_1 0
q_4_1_2 0
q_4_1_3 0
q_4_1_4 0
q_4_1_5 -7.1054273576010019e-15
q_5_0_0 48
q_5_0_1 0
q_5_0_2 0
q_5_0_3 1.4400000000000045e+02
q_5_0_4 0
q_5_0_5 -2.7711166694643907e-13
q_5_1_0 0
q_5_1_1 9.85878045867139e-14
q_5_1_2 -2.9132252166164108e-13
q_5_1_3 0
q_5_1_4 -5.3290705182007514e-15
q_5_1_5 0
y_0_0_0 1
y_0_0_1 1.0000000000000004e+00
y_0_0_2 1
y_0_0_3 1.0000000000000031e+00
y_0_0_4 1
y_0_0_5 -1.8873791418627661e-15
y_0_1_0 0
y_0_1_1 0
y_0_1_2 1
y_0_1_3 0
y_0_1_4 1
y_0_1_5 2.7755575615628914e-17
y_1_0_0 1.0000000000000002e+00
y_1_0_1 0
y_1_0_2 1
y_1_0_3 0
y_1_0_4 1
y_1_0_5 0
y_1_1_0 0
y_1_1_1 0
y_1_1_2 0
y_1_1_3 0
y_1_1_4 0
y_1_1_5 0
y_2_0_0 1
y_2_0_1 0
y_2_0_2 0
y_2_0_3 0
y_2_0_4 0
y_2_0_5 0
y_2_1_0 0
y_2_1_1 0
y_2_1_2 1
y_2_1_3 0
y_2_1_4 1
y_2_1_5 0
y_3_0_0 0
y_3_0_1 1.0000000000000004e+00
y_3_0_2 0
y_3_0_3 1
y_3_0_4 0
y_3_0_5 0
y_3_1_0 0
y_3_1_1 -5.3429483060085659e-16
y_3_1_2 1.0000000000000020e+00
y_3_1_3 0
y_3_1_4 1
y_3_1_5 0
y_4_0_0 1
y_4_0_1 0
y_4_0_2 1
y_4_0_3 0
y_4_0_4 9.9999999999999978e-01
y_4_0_5 0
y_4_1_0 0
y_4_1_1 0
y_4_1_2 0
y_4_1_3 0
y_4_1_4 0
y_4_1_5 -2.7755575615628914e-17
y_5_0_0 1
y_5_0_1 0
y_5_0_2 0
y_5_0_3 1.0000000000000031e+00
y_5_0_4 0
y_5_0_5 -1.8873791418627661e-15
y_5_1_0 0
y_5_1_1 0
y_5_1_2 -2.0261570199409107e-15
y_5_1_3 0
y_5_1_4 -4.1633363423443370e-17
y_5_1_5 0
x_0_1_0_0 0
x_0_1_0_1 0
x_0_1_0_2 1
x_0_1_0_3 0
x_0_1_0_4 1
x_0_1_0_5 0
x_0_1_1_0 0
x_0_1_1_1 0
x_0_1_1_2 0
x_0_1_1_3 0
x_0_1_1_4 0
x_0_1_1_5 0
x_0_2_0_0 9.9999999999999978e-01
x_0_2_0_1 0
x_0_2_0_2 0
x_0_2_0_3 0
x_0_2_0_4 0
x_0_2_0_5 0
x_0_2_1_0 0
x_0_2_1_1 0
x_0_2_1_2 1
x_0_2_1_3 0
x_0_2_1_4 1
x_0_2_1_5 0
x_0_3_0_0 0
x_0_3_0_1 2.0000000000000009e+00
x_0_3_0_2 0
x_0_3_0_3 1
x_0_3_0_4 2.7755575615628914e-17
x_0_3_0_5 0
x_0_3_1_0 0
x_0_3_1_1 -5.3429483060085659e-16
x_0_3_1_2 1.0000000000000040e+00
x_0_3_1_3 0
x_0_3_1_4 1
x_0_3_1_5 0
x_0_4_0_0 0
x_0_4_0_1 0
x_0_4_0_2 1
x_0_4_0_3 0
x_0_4_0_4 9.9999999999999989e-01
x_0_4_0_5 0
x_0_4_1_0 0
x_0_4_1_1 0
x_0_4_1_2 0
x_0_4_1_3 0
x_0_4_1_4 0
x_0_4_1_5 0
x_0_5_0_0 1
x_0_5_0_1 0
x_0_5_0_2 0
x_0_5_0_3 1.0000000000000069e+00
x_0_5_0_4 0
x_0_5_0_5 -3.7747582837255322e-15
x_0_5_1_0 0
x_0_5_1_1 5.3429483060085659e-16
x_0_5_1_2 -4.0523140398818214e-15
x_0_5_1_3 0
x_0_5_1_4 -8.3266726846886741e-17
x_0_5_1_5 5.5511151231257827e-17
x_1_2_0_0 1.0000000000000004e+00
x_1_2_0_1 0
x_1_2_0_2 0
x_1_2_0_3 0
x_1_2_0_4 0
x_1_2_0_5 0
x_1_2_1_0 0
x_1_2_1_1 0
x_1_2_1_2 0
x_1_2_1_3 0
x_1_2_1_4 0
x_1_2_1_5 0
x_1_3_0_0 0
x_1_3_0_1 0
x_1_3_0_2 0
x_1_3_0_3 0
x_1_3_0_4 0
x_1_3_0_5 0
x_1_3_1_0 0
x_1_3_1_1 0
x_1_3_1_2 0
x_1_3_1_3 0
x_1_3_1_4 0
x_1_3_1_5 0
x_1_4_0_0 1
x_1_4_0_1 0
x_1_4_0_2 1
x_1_4_0_3 0
x_1_4_0_4 1
x_1_4_0_5 0
x_1_4_1_0 0
x_1_4_1_1 0
x_1_4_1_2 0
x_1_4_1_3 0
x_1_4_1_4 0
x_1_4_1_5 0
x_1_5_0_0 0
x_1_5_0_1 0
x_1_5_0_2 0
x_1_5_0_3 0
x_1_5_0_4 0
x_1_5_0_5 0
x_1_5_1_0 0
x_1_5_1_1 0
x_1_5_1_2 0
x_1_5_1_3 0
x_1_5_1_4 0
x_1_5_1_5 0
x_2_3_0_0 0
x_2_3_0_1 0
x_2_3_0_2 0
x_2_3_0_3 0
x_2_3_0_4 0
x_2_3_0_5 0
x_2_3_1_0 0
x_2_3_1_1 0
x_2_3_1_2 1
x_2_3_1_3 0
x_2_3_1_4 1
x_2_3_1_5 0
x_2_4_0_0 0
x_2_4_0_1 0
x_2_4_0_2 0
x_2_4_0_3 0
x_2_4_0_4 0
x_2_4_0_5 0
x_2_4_1_0 0
x_2_4_1_1 0
x_2_4_1_2 0
x_2_4_1_3 0
x_2_4_1_4 0
x_2_4_1_5 0
x_2_5_0_0 0
x_2_5_0_1 0
x_2_5_0_2 0
x_2_5_0_3 0
x_2_5_0_4 0
x_2_5_0_5 0
x_2_5_1_0 0
x_2_5_1_1 0
x_2_5_1_2 0
x_2_5_1_3 0
x_2_5_1_4 0
x_2_5_1_5 0
x_3_4_0_0 0
x_3_4_0_1 0
x_3_4_0_2 0
x_3_4_0_3 0
x_3_4_0_4 0
x_3_4_0_5 0
x_3_4_1_0 0
x_3_4_1_1 0
x_3_4_1_2 0
x_3_4_1_3 0
x_3_4_1_4 0
x_3_4_1_5 0
x_3_5_0_0 0
x_3_5_0_1 0
x_3_5_0_2 0
x_3_5_0_3 1
x_3_5_0_4 0
x_3_5_0_5 0
x_3_5_1_0 0
x_3_5_1_1 -5.3429483060085659e-16
x_3_5_1_2 0
x_3_5_1_3 0
x_3_5_1_4 0
x_3_5_1_5 0
x_4_5_0_0 1
x_4_5_0_1 0
x_4_5_0_2 0
x_4_5_0_3 0
x_4_5_0_4 1.3877787807814457e-17
x_4_5_0_5 0
x_4_5_1_0 0
x_4_5_1_1 0
x_4_5_1_2 0
x_4_5_1_3 0
x_4_5_1_4 0
x_4_5_1_5 -5.5511151231257827e-17
